c Output_time 26.03.2020 18:15:43_+0100 1585242943521824840
c ** Program information **
c program_name                          "QBRG_debug"
c version                               "0.3.20"
c date                                  "25.3.2020"
c gid_id                                "673970833836058123f633335630c185360d632e"
c author                                "Oliver Kullmann"
c url                                   "https://github.com/OKullmann/oklibrary/blob/master/Satisfiability/Transformers/Generators/Random/QBRG.cpp"
c ** Machine information **
c machine_name                          "chyna-Lenovo-G50-70"
c bogomips                              3791.08
c ** Compilation information **
c compiler_version                      "g++ 7.5.0"
c compilation_date                      "Mar_26_2020 11:16:30"
c compilation_options                   "--std=c++17 -pedantic -fmax-errors=5 -Wall -Wextra -g -D_GLIBCXX_DEBUG"
c NDEBUG                                0
c OPTIMIZE                              0
c ** Parameters **
c command-line                          "./QBRG_debug" "a40 e40 a40 40" "741*1,1|2-2,1|3-3,1|4-4,1" "" "1,t" ""
c output                                "QuBlRaGe_160_741_1585242943224811211.qdimacs"
c options                               "filtered,renamed"
c num_quantifier_blocks                 4
c  quantifier_blocks                    1:a1-40 2:e41-80 3:a81-120 4:e121-160
c num_clause-blocks                     1
c  clause-blocks                        741 * {1-40,1,1/2} | {41-80,1,1/2} | {81-120,1,1/2} | {121-160,1,1/2}
c num_e-seeds                           37+2=39
c  e-seeds                              1 0 1 0 5 160 2 40 0 40 1 40 0 40 1 741 4 1 1 1 1 2 2 2 1 1 2 3 3 1 1 2 4 4 1 1 2 1 1585242943224810098
p cnf 160 741
a 1 2 3 4 5 6 7 8 9 10 11 12 13 14 15 16 17 18 19 20 21 22 23 24 25 26 27 28 29 30 31 32 33 34 35 36 37 38 39 40 0
e 41 42 43 44 45 46 47 48 49 50 51 52 53 54 55 56 57 58 59 60 61 62 63 64 65 66 67 68 69 70 71 72 73 74 75 76 77 78 79 80 0
a 81 82 83 84 85 86 87 88 89 90 91 92 93 94 95 96 97 98 99 100 101 102 103 104 105 106 107 108 109 110 111 112 113 114 115 116 117 118 119 120 0
e 121 122 123 124 125 126 127 128 129 130 131 132 133 134 135 136 137 138 139 140 141 142 143 144 145 146 147 148 149 150 151 152 153 154 155 156 157 158 159 160 0
-7 -52 81 -121 0
-10 68 84 -121 0
-19 54 88 -121 0
12 -67 90 -121 0
5 78 -92 -121 0
-37 -47 -93 -121 0
21 53 95 -121 0
-20 -44 96 -121 0
4 -73 99 -121 0
3 58 103 -121 0
-16 48 109 -121 0
25 45 119 -121 0
-1 46 -82 121 0
18 -44 89 121 0
-32 -55 -94 121 0
33 -57 -97 121 0
-32 -77 -97 121 0
-37 -57 106 121 0
-24 -73 117 121 0
14 72 119 121 0
-35 -78 -120 121 0
22 64 120 121 0
8 -76 81 -122 0
27 -63 82 -122 0
37 -44 -88 -122 0
12 -77 88 -122 0
-26 42 -94 -122 0
1 46 102 -122 0
-14 63 -104 -122 0
-36 42 112 -122 0
38 -71 115 -122 0
-20 77 -117 -122 0
-28 66 120 -122 0
-4 -69 102 122 0
-24 76 106 122 0
-29 43 -107 122 0
7 67 110 122 0
-28 43 114 122 0
33 -58 88 -123 0
-22 -69 -93 -123 0
34 67 95 -123 0
17 57 97 -123 0
28 70 -100 -123 0
7 -78 -102 -123 0
-39 -78 103 -123 0
16 -42 -106 -123 0
37 -78 85 123 0
-6 -58 90 123 0
9 48 -96 123 0
31 41 103 123 0
18 -62 107 123 0
-31 61 108 123 0
-18 79 -113 123 0
-3 -80 -116 123 0
33 61 -117 123 0
19 50 -120 123 0
-9 -44 81 -124 0
3 -67 84 -124 0
36 -50 88 -124 0
18 -54 89 -124 0
26 -77 89 -124 0
-14 -80 90 -124 0
-38 -42 97 -124 0
-26 -50 103 -124 0
-32 44 106 -124 0
36 -45 -81 124 0
11 60 -82 124 0
-10 -74 -95 124 0
22 -77 -105 124 0
4 -41 -108 124 0
-12 55 -113 124 0
3 -54 117 124 0
24 53 -81 -125 0
13 45 -85 -125 0
40 -45 -87 -125 0
6 -42 90 -125 0
-11 57 97 -125 0
-40 58 100 -125 0
-17 -72 -103 -125 0
-24 -66 -106 -125 0
3 63 -108 -125 0
1 -44 109 -125 0
3 -48 109 -125 0
-22 49 -112 -125 0
-37 -46 -116 -125 0
15 80 116 -125 0
6 69 -118 -125 0
-4 -68 87 125 0
25 -59 -89 125 0
25 68 90 125 0
-8 67 -94 125 0
8 -47 105 125 0
24 -76 110 125 0
27 -45 -116 125 0
-24 -55 -81 -126 0
16 -49 86 -126 0
29 80 86 -126 0
-23 -78 -93 -126 0
38 -59 104 -126 0
-24 54 -112 -126 0
5 80 -82 126 0
3 -47 93 126 0
6 53 101 126 0
-10 -76 87 -127 0
23 75 -88 -127 0
20 62 88 -127 0
-37 56 -93 -127 0
-9 -43 -98 -127 0
-27 54 100 -127 0
-8 49 -101 -127 0
-6 78 106 -127 0
-34 75 -107 -127 0
27 47 111 -127 0
-39 57 112 -127 0
4 56 -115 -127 0
16 68 -119 -127 0
18 69 119 -127 0
14 75 -82 127 0
6 -42 83 127 0
4 -48 -93 127 0
-15 58 -93 127 0
-17 -76 -102 127 0
-4 48 108 127 0
-36 79 -85 -128 0
33 -76 88 -128 0
8 -58 91 -128 0
-38 -52 101 -128 0
-26 -67 -112 -128 0
2 -53 117 -128 0
15 49 -81 128 0
-11 -42 84 128 0
32 -75 87 128 0
-36 54 88 128 0
-5 -51 -104 128 0
-22 -60 104 128 0
39 -53 119 128 0
5 71 -81 -129 0
-22 -41 82 -129 0
3 42 -84 -129 0
-5 73 98 -129 0
-6 59 105 -129 0
-10 -69 107 -129 0
-18 -68 -108 -129 0
-39 -69 110 -129 0
-35 -47 -81 129 0
25 51 -82 129 0
27 -50 82 129 0
32 -53 82 129 0
20 -44 -84 129 0
38 51 -84 129 0
-6 77 90 129 0
-9 79 92 129 0
-36 69 100 129 0
32 64 -105 129 0
32 -53 105 129 0
-37 72 -108 129 0
-8 -45 -110 129 0
25 61 -119 129 0
-4 -47 -120 129 0
10 66 82 -130 0
-34 -59 -92 -130 0
-6 60 106 -130 0
-26 -47 -112 -130 0
31 61 117 -130 0
34 -58 119 -130 0
22 -70 85 130 0
21 53 87 130 0
34 46 97 130 0
22 69 98 130 0
-27 53 -104 130 0
-25 65 -114 130 0
13 44 -120 130 0
-39 -74 120 130 0
6 -75 -81 -131 0
16 65 -91 -131 0
34 -61 -96 -131 0
36 80 96 -131 0
8 -60 -101 -131 0
30 -79 -102 -131 0
-33 -78 103 -131 0
12 45 -113 -131 0
-2 -74 115 -131 0
17 53 117 -131 0
10 75 -119 -131 0
-5 -54 120 -131 0
31 77 -81 131 0
28 -56 -87 131 0
-39 80 93 131 0
-17 80 101 131 0
-21 -63 -106 131 0
-34 59 -111 131 0
-31 72 -113 131 0
22 -66 116 131 0
-6 55 81 -132 0
-7 -51 -87 -132 0
-35 47 91 -132 0
34 -57 -113 -132 0
34 -48 -114 -132 0
-9 -59 115 -132 0
6 75 116 -132 0
-18 64 117 -132 0
-30 79 -93 132 0
-28 -65 103 132 0
22 45 -108 132 0
10 -51 -108 132 0
-38 57 -108 132 0
-36 53 -119 132 0
15 -72 120 132 0
-22 55 92 -133 0
-18 46 -94 -133 0
32 -54 -100 -133 0
27 -70 -120 -133 0
-15 -62 89 133 0
-36 -58 -97 133 0
19 75 98 133 0
-3 51 101 133 0
-34 60 105 133 0
31 -76 -109 133 0
23 66 -114 133 0
1 -70 -114 133 0
-2 -49 115 133 0
-32 72 84 -134 0
-25 60 -90 -134 0
19 42 -91 -134 0
-18 74 -92 -134 0
2 61 -100 -134 0
-16 53 100 -134 0
16 48 105 -134 0
-4 -58 -106 -134 0
14 62 -108 -134 0
2 -74 -109 -134 0
28 -61 89 134 0
-21 -60 -94 134 0
20 -72 -113 134 0
-10 -57 120 134 0
-34 60 -84 -135 0
8 -70 84 -135 0
-6 44 -93 -135 0
26 -67 -93 -135 0
-20 45 -96 -135 0
-20 -75 -96 -135 0
28 -74 -102 -135 0
32 64 102 -135 0
-2 -70 102 -135 0
-38 -53 -105 -135 0
-8 41 -108 -135 0
4 49 -108 -135 0
-17 67 112 -135 0
-6 -52 -114 -135 0
31 57 114 -135 0
11 64 -116 -135 0
-25 -53 -118 -135 0
-31 -46 -119 -135 0
-4 45 119 -135 0
-9 -73 84 135 0
-19 51 86 135 0
8 -61 87 135 0
18 78 92 135 0
-32 -52 95 135 0
-3 -46 -96 135 0
13 -72 -120 135 0
2 63 -81 -136 0
6 45 97 -136 0
10 55 101 -136 0
-17 -64 101 -136 0
14 -64 104 -136 0
30 67 107 -136 0
-22 -79 -118 -136 0
1 71 -85 136 0
-7 80 93 136 0
-25 -59 102 136 0
31 -64 -111 136 0
26 54 112 136 0
22 -58 117 136 0
4 44 -118 136 0
39 -61 118 136 0
19 -66 -96 -137 0
-10 -80 98 -137 0
-17 -48 99 -137 0
-3 51 101 -137 0
3 45 104 -137 0
-26 -62 -111 -137 0
3 62 112 -137 0
27 -64 -81 137 0
-25 78 -85 137 0
-8 -60 -88 137 0
21 -50 -97 137 0
-20 64 -101 137 0
1 63 105 137 0
6 -42 -81 -138 0
24 72 -81 -138 0
30 44 81 -138 0
11 -68 89 -138 0
-19 -62 92 -138 0
-28 75 102 -138 0
39 -44 107 -138 0
28 66 120 -138 0
27 46 -94 138 0
-39 -72 -99 138 0
-24 -50 100 138 0
17 -64 85 -139 0
-28 70 86 -139 0
-8 -54 102 -139 0
-15 76 -105 -139 0
-9 -56 -108 -139 0
9 -59 108 -139 0
30 71 115 -139 0
-27 -59 85 139 0
-18 -69 85 139 0
36 54 -89 139 0
19 62 89 139 0
-39 -45 -90 139 0
26 41 -95 139 0
38 -58 98 139 0
19 -65 -100 139 0
35 -73 105 139 0
5 -60 110 139 0
2 -54 -83 -140 0
2 -66 -83 -140 0
26 41 -97 -140 0
-4 -67 98 -140 0
5 -70 99 -140 0
-7 -55 -112 -140 0
31 -78 112 -140 0
-4 -65 -116 -140 0
-13 -60 -117 -140 0
17 -56 -120 -140 0
-30 -46 82 140 0
32 -69 -84 140 0
40 41 88 140 0
-16 59 -96 140 0
3 55 97 140 0
18 -75 -98 140 0
-5 -42 -99 140 0
-15 -66 -99 140 0
-6 -73 100 140 0
-20 77 103 140 0
9 -76 -115 140 0
-7 -66 82 -141 0
-34 -41 -91 -141 0
5 -52 98 -141 0
4 -65 101 -141 0
20 43 112 -141 0
-36 74 112 -141 0
30 -41 119 -141 0
-19 -54 -82 141 0
-20 -67 83 141 0
-23 66 -86 141 0
16 57 90 141 0
17 79 -105 141 0
-6 -44 -115 141 0
-17 -63 81 -142 0
-14 76 -83 -142 0
-5 77 -83 -142 0
-33 -52 -84 -142 0
5 74 -88 -142 0
14 75 -88 -142 0
18 -57 -90 -142 0
6 56 96 -142 0
-29 65 100 -142 0
-11 -77 -103 -142 0
15 -65 103 -142 0
-4 65 -105 -142 0
36 -60 106 -142 0
26 70 113 -142 0
21 -80 114 -142 0
14 56 -115 -142 0
20 -74 87 142 0
-14 45 92 142 0
-28 -41 94 142 0
-4 55 96 142 0
-24 76 -107 142 0
-24 74 -112 142 0
-40 78 -113 142 0
-4 77 -114 142 0
-16 77 -115 142 0
-29 -73 119 142 0
-19 51 84 -143 0
13 49 -100 -143 0
34 -57 101 -143 0
-34 -64 101 -143 0
6 -63 -103 -143 0
-12 68 103 -143 0
-34 80 -106 -143 0
-36 -72 107 -143 0
21 67 -118 -143 0
1 53 -85 143 0
18 -54 93 143 0
37 -76 -95 143 0
-11 59 -99 143 0
-3 43 103 143 0
-5 63 106 143 0
-30 79 -112 143 0
-26 58 112 143 0
-20 61 118 143 0
-3 -62 119 143 0
22 49 -82 -144 0
18 51 83 -144 0
-15 -68 -84 -144 0
-23 -51 91 -144 0
37 56 -97 -144 0
7 76 98 -144 0
-14 -59 102 -144 0
-33 71 -114 -144 0
33 72 116 -144 0
17 68 120 -144 0
13 55 -88 144 0
-1 -42 89 144 0
-11 -52 -95 144 0
-11 56 96 144 0
7 -68 96 144 0
12 43 -101 144 0
14 54 104 144 0
10 -75 118 144 0
-28 42 84 -145 0
-3 -67 -90 -145 0
-10 59 90 -145 0
-32 56 92 -145 0
-7 43 102 -145 0
-18 74 110 -145 0
-30 48 114 -145 0
33 -80 -120 -145 0
4 59 92 145 0
-22 59 -97 145 0
9 49 -100 145 0
-4 -41 102 145 0
34 57 -114 145 0
-10 43 115 145 0
-18 -42 82 -146 0
-7 76 97 -146 0
7 64 -100 -146 0
-13 -42 103 -146 0
4 -48 103 -146 0
-8 -54 104 -146 0
-31 74 -105 -146 0
-36 -45 -109 -146 0
26 -49 -109 -146 0
-31 -49 109 -146 0
-40 64 111 -146 0
36 -53 112 -146 0
-11 -70 118 -146 0
-5 -79 120 -146 0
16 47 83 146 0
-14 -68 83 146 0
-18 -53 -84 146 0
-24 -59 -87 146 0
11 -70 -89 146 0
9 80 90 146 0
-26 -73 102 146 0
23 -51 103 146 0
18 -55 103 146 0
14 -59 109 146 0
-29 69 109 146 0
-19 66 111 146 0
-36 58 -114 146 0
-2 71 -116 146 0
29 64 120 146 0
2 67 -81 -147 0
37 -80 -84 -147 0
-38 68 91 -147 0
20 -74 92 -147 0
34 -46 93 -147 0
-7 80 99 -147 0
-35 -79 100 -147 0
-24 58 -101 -147 0
36 79 -102 -147 0
-30 -74 -103 -147 0
39 -58 114 -147 0
-6 63 82 147 0
19 -78 -84 147 0
34 58 85 147 0
-33 54 -91 147 0
26 -69 97 147 0
-12 -74 -98 147 0
-4 -47 -101 147 0
-8 45 -103 147 0
-4 -68 -110 147 0
27 -47 -111 147 0
-6 62 111 147 0
-14 -43 -116 147 0
-14 -73 83 -148 0
-38 -73 87 -148 0
19 78 -91 -148 0
16 77 91 -148 0
23 49 95 -148 0
17 43 -97 -148 0
-21 -54 97 -148 0
-10 47 101 -148 0
-34 -43 102 -148 0
-24 78 103 -148 0
-14 -49 106 -148 0
-17 -69 106 -148 0
34 80 -107 -148 0
22 67 109 -148 0
31 -66 111 -148 0
-17 -53 116 -148 0
-30 -44 -118 -148 0
25 60 119 -148 0
3 -51 -120 -148 0
-22 -44 -106 148 0
6 64 106 148 0
-10 -77 116 148 0
-25 -76 118 148 0
-30 -67 -119 148 0
4 52 -120 148 0
37 -78 -120 148 0
17 -60 85 -149 0
-33 -50 90 -149 0
25 -77 105 -149 0
20 54 110 -149 0
32 -74 113 -149 0
37 -78 -118 -149 0
-30 68 -82 149 0
-22 76 -85 149 0
-29 -69 -92 149 0
15 49 97 149 0
-2 66 101 149 0
-8 55 107 149 0
9 -50 117 149 0
28 -48 -119 149 0
36 -68 -119 149 0
-22 66 -87 -150 0
30 56 93 -150 0
-17 -49 94 -150 0
31 77 -99 -150 0
-11 -63 -111 -150 0
-23 -68 -111 -150 0
25 -69 117 -150 0
-38 -51 85 150 0
-19 -53 -91 150 0
-20 53 -91 150 0
9 -76 -93 150 0
30 -63 -95 150 0
25 -65 98 150 0
-1 -45 -101 150 0
-15 67 102 150 0
13 46 -105 150 0
-15 63 105 150 0
8 -46 -108 150 0
25 -48 113 150 0
-25 -75 -118 150 0
28 -43 -120 150 0
-35 -65 120 150 0
25 -62 82 -151 0
27 78 -87 -151 0
-8 -76 -101 -151 0
-34 -68 -112 -151 0
-34 -53 -115 -151 0
14 -78 118 -151 0
34 -53 -120 -151 0
-13 -57 -83 151 0
-14 -48 84 151 0
-30 -69 -94 151 0
16 -68 -98 151 0
29 67 -101 151 0
-15 -48 -102 151 0
10 -71 107 151 0
13 -41 110 151 0
-27 52 -112 151 0
25 -73 113 151 0
-6 -63 -82 -152 0
33 41 87 -152 0
11 53 -96 -152 0
10 55 -103 -152 0
35 -70 -109 -152 0
12 -52 -82 152 0
27 60 -82 152 0
-16 -77 88 152 0
-23 47 100 152 0
16 -49 -104 152 0
-36 -54 109 152 0
35 -68 -82 -153 0
-32 59 -83 -153 0
-4 -68 91 -153 0
-16 61 -93 -153 0
3 41 93 -153 0
40 -68 -100 -153 0
-8 47 106 -153 0
23 -63 -108 -153 0
-12 65 -113 -153 0
39 -63 -116 -153 0
24 49 88 153 0
8 -77 102 153 0
-1 -61 106 153 0
-38 -67 -107 153 0
35 -65 111 153 0
19 65 113 153 0
-28 44 117 153 0
-29 -55 118 153 0
19 57 83 -154 0
-37 -80 101 -154 0
34 68 -104 -154 0
15 -50 105 -154 0
-17 41 108 -154 0
36 76 -113 -154 0
-19 66 -116 -154 0
-5 -65 88 154 0
27 -63 -91 154 0
-13 -57 -92 154 0
33 41 94 154 0
2 50 101 154 0
-34 -75 -103 154 0
-21 -46 -109 154 0
40 42 -110 154 0
-13 -50 -114 154 0
-10 -80 115 154 0
-17 58 120 154 0
-4 78 120 154 0
32 -68 -81 -155 0
-31 62 81 -155 0
-25 -58 -91 -155 0
30 48 -93 -155 0
18 -74 -98 -155 0
29 64 -99 -155 0
-39 78 102 -155 0
17 63 -113 -155 0
-8 66 -118 -155 0
32 43 -119 -155 0
-16 42 120 -155 0
35 -50 -82 155 0
-13 -75 -82 155 0
-26 -67 83 155 0
28 -54 84 155 0
-30 63 91 155 0
40 -71 96 155 0
-12 77 -97 155 0
12 79 -104 155 0
-17 -41 -110 155 0
-32 -58 -115 155 0
-26 -75 82 -156 0
6 50 -83 -156 0
31 64 -90 -156 0
17 59 90 -156 0
3 -49 -94 -156 0
-16 55 97 -156 0
-33 -79 98 -156 0
21 -52 99 -156 0
-34 -51 -108 -156 0
-18 -43 108 -156 0
4 59 108 -156 0
-30 -65 109 -156 0
33 -41 -115 -156 0
-7 -58 -116 -156 0
-13 -74 -81 156 0
-13 -50 -85 156 0
3 60 89 156 0
26 -42 92 156 0
-8 53 94 156 0
-9 -52 -103 156 0
-24 69 103 156 0
-35 -49 -105 156 0
8 50 -112 156 0
29 -57 112 156 0
10 -52 113 156 0
-18 -41 -114 156 0
35 -71 114 156 0
-1 -65 -81 -157 0
-3 -48 82 -157 0
17 54 83 -157 0
35 -45 -85 -157 0
2 -49 85 -157 0
-11 52 -92 -157 0
19 -61 -92 -157 0
40 72 -93 -157 0
24 -80 96 -157 0
-12 -66 -97 -157 0
5 -80 97 -157 0
-8 53 -103 -157 0
-7 -66 -104 -157 0
-29 -44 -108 -157 0
36 -41 114 -157 0
-5 -60 119 -157 0
39 -63 -89 157 0
27 43 -93 157 0
-7 79 -94 157 0
-27 -41 -99 157 0
10 58 -99 157 0
-16 60 102 157 0
-35 -72 -107 157 0
38 -65 -115 157 0
-19 64 -116 157 0
1 -52 119 157 0
-2 -54 81 -158 0
39 -55 84 -158 0
-10 -54 88 -158 0
4 53 -89 -158 0
8 -55 90 -158 0
12 -44 108 -158 0
17 58 -110 -158 0
39 48 83 158 0
-6 62 87 158 0
18 80 88 158 0
22 74 -90 158 0
-21 56 90 158 0
17 -70 92 158 0
24 -42 96 158 0
23 57 101 158 0
-18 57 113 158 0
-24 -43 115 158 0
-7 68 -119 158 0
7 71 -89 -159 0
35 -61 -93 -159 0
-11 67 95 -159 0
16 41 -101 -159 0
25 -55 -103 -159 0
11 41 104 -159 0
-40 50 106 -159 0
18 -63 109 -159 0
-33 -66 -110 -159 0
-15 49 117 -159 0
-9 60 -119 -159 0
28 -60 -92 159 0
-11 45 94 159 0
17 -71 -102 159 0
2 62 -104 159 0
18 -41 107 159 0
6 -78 109 159 0
-34 -53 110 159 0
40 -44 111 159 0
-11 -58 -115 159 0
-2 78 117 159 0
3 71 85 -160 0
-4 51 -93 -160 0
-40 57 -94 -160 0
18 -73 -95 -160 0
-4 -48 100 -160 0
-25 -69 -102 -160 0
15 58 106 -160 0
-20 -56 -111 -160 0
-28 -79 -114 -160 0
37 -51 -117 -160 0
23 69 -81 160 0
-16 -43 -90 160 0
24 -57 90 160 0
36 -53 -108 160 0
30 -60 -115 160 0
5 -74 -116 160 0
-20 -45 116 160 0
39 76 -117 160 0
-2 44 118 160 0
16 78 118 160 0
